25 50
1 2 2
1 6 4
2 3 2
2 7 4
3 4 4
3 8 2
4 5 2
4 9 5
5 10 2
6 7 3
6 11 2
7 8 3
7 12 5
8 9 5
8 13 2
9 10 4
9 14 5
10 15 2
11 12 4
11 16 5
12 13 4
12 17 2
13 14 5
13 18 5
14 15 2
14 19 3
15 20 3
16 17 3
16 21 1
17 18 3
17 22 4
18 19 3
18 23 5
19 20 4
19 24 2
20 25 2
21 22 3
22 23 3
23 24 1
24 25 1
1 21 3
2 22 3
3 23 5
4 24 2
5 25 4
1 5 1
6 10 3
11 15 1
16 20 5
21 25 1
